
Gurobi 9.5.1 (linux64) logging started Thu Mar 31 16:13:06 2022

Set parameter LogFile to value "../results/logs/log_2022_03_31_16_06.csv_21_250.log"
Gurobi Optimizer version 9.5.1 build v9.5.1rc2 (linux64)
Thread count: 8 physical cores, 8 logical processors, using up to 8 threads
Optimize a model with 299369 rows, 299368 columns and 22391524 nonzeros
Model fingerprint: 0x8fb7c7d1
Coefficient statistics:
  Matrix range     [1e+00, 2e+01]
  Objective range  [1e+00, 1e+00]
  Bounds range     [1e+00, 1e+00]
  RHS range        [1e+00, 2e+02]

Concurrent LP optimizer: primal simplex, dual simplex, and barrier
Showing barrier log only...

Presolve removed 0 rows and 0 columns (presolve time = 6s) ...
Presolve time: 7.39s
Presolved: 299369 rows, 299368 columns, 22391524 nonzeros

Elapsed ordering time = 5s
Elapsed ordering time = 10s
Elapsed ordering time = 15s
Elapsed ordering time = 20s
Elapsed ordering time = 25s
Elapsed ordering time = 31s
Elapsed ordering time = 35s
Elapsed ordering time = 40s
Elapsed ordering time = 46s
Elapsed ordering time = 50s
Elapsed ordering time = 55s
Elapsed ordering time = 62s
Elapsed ordering time = 65s
Elapsed ordering time = 70s
Elapsed ordering time = 71s
Ordering time: 71.46s

Barrier performed 0 iterations in 109.10 seconds (104.07 work units)
Barrier solve interrupted - model solved by another algorithm


Solved with dual simplex
Solved in 45476 iterations and 109.13 seconds (371.27 work units)
Optimal objective  1.116814605e+05
